108
#Comment!
LJ  0.34356969929641962   -0.127542904104153   0.25024930044103721
LJ  0.10583558532543039   0.44024238844030406   -0.053125462870282907
LJ  0.037657642233418803   -0.36187726838433415   -0.34928565929207395
LJ  -0.46940164596014111   -0.15300315414521176   -0.30985530766515995
LJ  0.28340933557109427   -0.028763269644737716   -0.029738663079429292
LJ  -0.23050574936659898   0.14223452829626251   -0.42682662730398119
LJ  -0.092829554470363063   -0.35964265464040701   0.27660781665508699
LJ  0.43431696290301908   -0.45774937183350584   -0.062708190883399864
LJ  0.068900641493867917   0.14979174141266163   -0.44001468554895923
LJ  0.41883344488803109   0.48447138089176067   -0.46112341582856275
LJ  -0.37128286425408308   0.47962298429715644   0.34442873169457444
LJ  0.18629930338583855   -0.21124498496853969   -0.27116130758122925
LJ  0.16389636220902021   -0.042395084565250665   0.41556665154268757
LJ  -0.25486930906693461   0.09475635896972473   -0.49216705944826644
LJ  -0.36412929131217336   0.027740359088765501   -0.13611807215150309
LJ  0.14702735168575165   0.32292119487425242   -0.28537377700924149
LJ  -0.049628196882876084   -0.48124099788612706   -0.36704087682764169
LJ  0.077957426109292377   -0.081268279897247428   0.30887253988968988
LJ  -0.060858079658975876   0.17738773066362279   0.43980137995079249
LJ  0.049788426786120533   0.18301520860883366   -0.319448615575262
LJ  0.4292889944934582   -0.31384366355077448   0.28802490952428089
LJ  -0.084346291935162451   0.39820984126145953   -0.13471674005330334
LJ  0.023803141830842412   -0.2733299596106003   -0.34245814544330327
LJ  -0.34702734004692193   0.45306279971364327   -0.15476175718827917
LJ  -0.072489487104539133   -0.12617122786992621   0.02480354174769309
LJ  -0.11284555156947691   0.16805124276576719   -0.35047367659443512
LJ  0.19187306038318305   0.23177370572447017   -0.034337808467756789
LJ  0.49155780171132657   -0.14436594402778602   -0.012142843901429744
LJ  0.42550849437890409   -0.12732826310171541   -0.25888002317171072
LJ  -0.35636433015625485   0.31511927813474916   -0.21987521221939871
LJ  0.2966340719566482   0.41779386131764701   -0.34298270638665268
LJ  0.0085054945613038876   0.09699851025356844   -0.34468192845398909
LJ  0.30923872113200057   -0.28464941136931421   0.099950420972999388
LJ  -0.0028082489355675025   -0.042997821960545517   0.024134497450792099
LJ  0.27207129746872843   -0.11618794044014631   0.46357919952848475
LJ  -0.26982658260039549   0.32154643208688449   -0.3792270850934345
LJ  0.092565834690375506   0.39174203133776297   -0.27219277445296242
LJ  0.41773501129451818   0.31926799854424515   0.34563574465965019
LJ  0.34964328276119916   0.14507640945546507   -0.039336615989522115
LJ  0.40042046967323497   -0.15584092080874437   -0.42909588602437049
LJ  -0.070347672459346908   0.10528169165335662   0.087986224613003414
LJ  -0.27126281806635966   0.4892397337527733   -0.045380031932718716
LJ  -0.07287911100166701   -0.24791483194405206   0.15286531755998767
LJ  -0.42444611689704909   0.25916267873033888   -0.29734846436047169
LJ  -0.39819904010468526   0.28800587655467302   -0.020486616072316128
LJ  -0.058963391365523581   -0.46851386473982087   -0.46023707593079755
LJ  -0.38119913721291682   -0.12948068228172713   0.28676407983682228
LJ  -0.02597621162789799   0.011988741917807428   -0.022835508922626875
LJ  0.18878969506003798   0.21571473199235131   -0.19806791452626316
LJ  -0.15659276653089368   -0.3886312576648433   -0.21304634669804198
LJ  0.30650957687726843   0.35497630742089009   -0.49294270317296185
LJ  -0.4839949904146868   0.18336969301421963   0.39581603078413652
LJ  -0.05872260826723822   0.46726361150063611   -0.30045490266666153
LJ  -0.40278074128092944   0.44287089352273201   0.27390281111201686
LJ  0.1453664151309276   -0.037973002307565638   0.013769340130192285
LJ  0.44045769333149087   -0.11726932519081203   0.41673210255530602
LJ  -0.47291550603407456   0.28047043495986362   -0.23235980688578714
LJ  -0.4828679533068177   0.20931371016588174   -0.024070029765878544
LJ  0.35246146221994373   0.1273745699997233   -0.13116764026382144
LJ  -0.31463203464633194   -0.34617405059730399   -0.37464619546709887
LJ  0.22618354602488028   -0.00037911188657423531   -0.26192058864147161
LJ  0.46234275249559648   0.46664906543748058   0.43719331352999918
LJ  -0.16881116703698842   -0.27024871833447062   -0.40715941755402074
LJ  0.47326610168191646   -0.36780808782501534   0.094984199066519864
LJ  0.42510109825873349   -0.2820390505527357   -0.42719335733019193
LJ  -0.13963060487625495   -0.4565751234869771   0.23964114529313449
LJ  -0.12690581316534402   0.26336570083959515   0.074705307189163725
LJ  -0.37758823821579385   -0.37126817181926508   -0.15674003634929293
LJ  0.34230629485974295   -0.40022875213072157   0.48889911082962983
LJ  -0.40923627113812483   0.46967554697929875   -0.49926179930220466
LJ  -0.30272141561465088   -0.086524406060401432   0.16798952909065984
LJ  -0.41854552180478127   -0.25833962632078578   0.18702283705382658
LJ  -0.4382879314157016   -0.14800342750584819   0.10968580273728055
LJ  0.2854792228040719   0.48408277972569497   0.119622718276281
LJ  -0.29941614630049218   -0.27275486630089008   0.19053619978073716
LJ  0.040522442779745378   -0.48007006087700438   0.23036081569097103
LJ  0.12686037825522073   -0.43555186451974687   -0.35907117910424391
LJ  -0.14836231905397743   0.43921681140760815   0.21361670033494928
LJ  -0.26997413810603121   0.45039009789834106   -0.2924557468119291
LJ  0.32267956422614585   -0.25455365393051799   -0.27212625243719213
LJ  0.17603715977590667   -0.47524553395583063   -0.20831264158454618
LJ  -0.49475497324936957   0.46839177970680673   0.37402037653778991
LJ  0.014477066770408838   -0.16950774596649851   -0.46344224265546757
LJ  -0.33398543398683778   0.116637088499744   0.40820852335000701
LJ  -0.26440162106275145   0.13675266094490254   0.02989748559688625
LJ  -0.42999323196825523   -0.32910615528918014   -0.1105987979444302
LJ  -0.12683752298087111   -0.13448880202866526   -0.29046099900084421
LJ  0.025012013895368175   0.24830501361571589   0.28860276785087652
LJ  -0.30032971463253516   -0.49252451371453226   0.42976244147090875
LJ  0.3376062063334388   -0.079983800246737943   -0.14905373564307392
LJ  0.088736522681136173   -0.072979826583841528   -0.49085467096860186
LJ  -0.15611659115447471   0.035442113458500908   -0.33257298730116008
LJ  -0.44158384160001146   0.033006940140969117   0.43696271108934603
LJ  0.063612431811299525   -0.044488583208328818   -0.28027710115758098
LJ  -0.10437068533199163   -0.24229445339255584   -0.49800207292864862
LJ  0.085110685249166207   -0.32539515417779652   -0.19975419558915927
LJ  0.26155509276840505   -0.065802783604260714   0.29387315120236501
LJ  -0.28157530221290822   -0.10080140959942188   0.41929101902390337
LJ  0.21496400926443804   0.40487628406663156   -0.31903612122523367
LJ  0.3505229722571121   -0.47327103108485152   -0.17543878260799928
LJ  -0.067318226990678201   -0.43859160964437388   -0.03331402655568181
LJ  0.45157711084095209   0.38035088206181733   -0.28671272493082994
LJ  -0.44685312347271666   0.20312475269114866   0.2668930498879768
LJ  -0.2946213255927379   -0.45219244103053513   -0.31838337403814299
LJ  -0.023025148207119438   0.28655393425618408   -0.11623306531162426
LJ  0.33252924199085876   -0.38184602978843918   0.41747256681108103
LJ  0.28467224564889804   -0.150748696863204   -0.3951958681839986
LJ  0.22916207248981357   0.056333517999522929   -0.35296646620414723
