108
#Comment!
LJ  0.34352863323608257   -0.12736838238267834   0.25012563199937521
LJ  0.10582788294893469   0.44021805981644085   -0.053081363068527426
LJ  0.037756397495618897   -0.3616293258506047   -0.3493121498965982
LJ  -0.46949860065559251   -0.15316586431194215   -0.30975517249496448
LJ  0.28354098378446513   -0.028630357848896046   -0.029783320114654125
LJ  -0.23054011822860776   0.14223152944560954   -0.42663327785266253
LJ  -0.093099439176642748   -0.35967694575359754   0.27656261368443158
LJ  0.43425978412205474   -0.45775862365145997   -0.062682260780985641
LJ  0.068792592435812247   0.14986686856067827   -0.43995498840441699
LJ  0.41902531368240914   0.48453543651193803   -0.46118715206389832
LJ  -0.37133130688653421   0.47961369431430967   0.34443136277541042
LJ  0.18627528229171852   -0.21132942785341077   -0.27121319794712284
LJ  0.16386057738601956   -0.042394818482379526   0.41557040801972905
LJ  -0.25494656780234154   0.094863834883390702   -0.49212845932900762
LJ  -0.36403812746910891   0.027834481235654233   -0.13618146559174601
LJ  0.14690209976967461   0.32301849435883695   -0.28508525869419954
LJ  -0.049563065726898503   -0.48118879782750651   -0.36710817428149956
LJ  0.078016893923386246   -0.081368263055219603   0.30871041540268279
LJ  -0.060943942836187079   0.17733413393373815   0.43968397276214521
LJ  0.049874267345539174   0.18308790468275943   -0.31979468063856337
LJ  0.42927315961859674   -0.31387487707480938   0.2881114112726656
LJ  -0.084166339470464605   0.39829343514887372   -0.13463943522914579
LJ  0.023799672820346982   -0.27331381093136281   -0.34246035139130399
LJ  -0.34717767003978861   0.45304401110095821   -0.15472787529087648
LJ  -0.072505178513491406   -0.12618115924573514   0.024970139856668034
LJ  -0.1126900303065131   0.16792979489022375   -0.35047054608903866
LJ  0.19181905980933392   0.23170720633275857   -0.034476480678188141
LJ  0.4915395338516011   -0.1443213705220083   -0.012222147132990198
LJ  0.42551648472813092   -0.12734925095830615   -0.25907506386984103
LJ  -0.35633211530243331   0.31511868265020004   -0.21977831497081035
LJ  0.29661427181071054   0.41765894204713311   -0.34296773382436341
LJ  0.0086051325180288695   0.097083450599533966   -0.3446516158598702
LJ  0.30915289830686093   -0.28456824477655551   0.10001245785343148
LJ  -0.0027797748618138317   -0.043146019474485167   0.024135128709163487
LJ  0.27186762736520065   -0.11608008800344004   0.46359918967077385
LJ  -0.26953446069879017   0.32156094997875528   -0.37915490723411965
LJ  0.09293850882262511   0.39178954666818316   -0.27210630184650886
LJ  0.41754652549489019   0.31923546305118178   0.34565393005288947
LJ  0.34976912879263222   0.14508544021682457   -0.039366717358638566
LJ  0.40054144224531724   -0.15597506382089268   -0.42907748957886693
LJ  -0.07036168268861856   0.1052951500436141   0.087815962409101875
LJ  -0.27124697945330994   0.48932980009396321   -0.045332545669783737
LJ  -0.072992276342204343   -0.24791514444801815   0.15296036090156501
LJ  -0.42427425419063114   0.25914811238429342   -0.29731959578480227
LJ  -0.39837115640248238   0.28805793596372259   -0.020462069408429078
LJ  -0.058946391909672297   -0.46853771174724756   -0.46019400364607715
LJ  -0.38128281197458397   -0.12946293683432022   0.28678754027153353
LJ  -0.026040041247221569   0.011777520858926244   -0.022758567562056325
LJ  0.18876550394291347   0.21566547871160546   -0.19820748270454935
LJ  -0.15658446146297614   -0.38837618426822124   -0.21314005449206733
LJ  0.30650379904129149   0.35507674612583168   -0.49318799842187472
LJ  -0.48393938115236657   0.18340764146786054   0.39593679431784284
LJ  -0.058754395028508898   0.46743204773480929   -0.30066885156714906
LJ  -0.40268803339100784   0.44269650092396234   0.27414548654644127
LJ  0.14542391737546173   -0.038048613719213656   0.013782163581650322
LJ  0.44071183054891921   -0.11702513926451044   0.41656516724902387
LJ  -0.47300362487309705   0.28055028770541451   -0.23258305051206057
LJ  -0.48279316995954669   0.20929891111236101   -0.023973575439770776
LJ  0.3524878097387561   0.1274946565717181   -0.13096864470251038
LJ  -0.31455660141494807   -0.34598088419816314   -0.37465521896584131
LJ  0.226102216295506   -0.00044543913444988981   -0.26201656248012795
LJ  0.46236435235167067   0.46664066798929771   0.43723012495947539
LJ  -0.16877082731342199   -0.27021998544166942   -0.40705129601810741
LJ  0.47334071159054514   -0.36775935751673411   0.094915409533720088
LJ  0.42493397582401549   -0.28223485837808965   -0.42691515813342662
LJ  -0.13973136080893403   -0.45661276189042693   0.23969570288145414
LJ  -0.12695059911998524   0.26334757545379733   0.074645987323776863
LJ  -0.37757138508413551   -0.3714671847950442   -0.15683486901287391
LJ  0.34225150750772321   -0.40019213428470507   0.48878585163355848
LJ  -0.40913707330074961   0.46970051476135927   -0.49933773425063488
LJ  -0.30284913755300663   -0.086588990285580203   0.16791253541524054
LJ  -0.41860853821185834   -0.25838577903748244   0.186986990476319
LJ  -0.43832339436630624   -0.14793831960551318   0.10973841736634671
LJ  0.28549720889253682   0.48421678901867965   0.11965192944604433
LJ  -0.29933672830286234   -0.27284976408214912   0.19056291405253245
LJ  0.040625901093186839   -0.48007902600233748   0.23051278059731548
LJ  0.12696500528284246   -0.43543995396831725   -0.35897348346707869
LJ  -0.14829992504098494   0.43912752703822472   0.21371813197193995
LJ  -0.27012954352842611   0.45025416914144223   -0.29243816879097134
LJ  0.32264190130752646   -0.25465869015981429   -0.271932279293844
LJ  0.17615870869137004   -0.47527547820309446   -0.20829623740207662
LJ  -0.49489819677720737   0.4685726952937676   0.37411049111036343
LJ  0.014612478601016747   -0.169393437272991   -0.46351481572570491
LJ  -0.33394682750683602   0.11659913385366159   0.40827091056083559
LJ  -0.264394381727384   0.13679047751084994   0.029913009318026013
LJ  -0.43024733688973049   -0.3291289356751686   -0.11061520661386325
LJ  -0.12678357942544108   -0.13456310859529469   -0.29043365548083888
LJ  0.024944678894539652   0.24821723649173116   0.28869087265736337
LJ  -0.30028722800209184   -0.49265461382118941   0.42954968810612348
LJ  0.33763946170005971   -0.080031287813952232   -0.14891108690038532
LJ  0.08859040384546836   -0.073136898485626489   -0.49078118076177502
LJ  -0.15612691039719412   0.035420304856832813   -0.33274049104996289
LJ  -0.44167938852383415   0.033330000487582126   0.43712921110404868
LJ  0.063769348117727054   -0.044545255144222425   -0.28038783079962409
LJ  -0.1043831650015344   -0.24236974623224544   -0.49791647375471598
LJ  0.085341038122052446   -0.32545389857235346   -0.19980638111662044
LJ  0.26158360229506977   -0.065986834494352567   0.29378762917769874
LJ  -0.28161484868228298   -0.10072376070322928   0.4192487278339172
LJ  0.21478794113394345   0.4049308690334596   -0.31904380144458361
LJ  0.35037220425232568   -0.47339268815893126   -0.17545681953417236
LJ  -0.067438848975485466   -0.43878155298644694   -0.033481658871962368
LJ  0.45150758784053879   0.38049790946150552   -0.28669049236939176
LJ  -0.44703904624149454   0.20273437879093636   0.2668277115482931
LJ  -0.29470795044045273   -0.45231392989708963   -0.31850972157883017
LJ  -0.022824446346513282   0.28661192834890609   -0.11627024289008368
LJ  0.33264445032305878   -0.38180873088472805   0.41757677431809292
LJ  0.28480305945445539   -0.15057749500716663   -0.39511454157706249
LJ  0.22904791066176541   0.056342876966381981   -0.35302418920909462
